5
4
4
18.0
4 2 0
2 6 2 1 4
3 10 3 1 2 4
3 5 0
6
10.0
4 8 2 2 5
3 2 2 5 6
1 6 4 1 2 4 5
2 7 2 1 5
5 6 0
4 7 1 5
5
19.0
2 7 3 2 3 4
4 10 2 3 4
3 25 1 4
5 4 0
3 6 4 1 2 3 4
6
14.0
3 7 1 6
5 5 4 1 3 4 5
4 6 2 1 6
4 8 3 1 3 6
3 8 3 1 4 6
2 6 0
